nNurses = 95;
nHours = 40;
minHours = 10;
maxHours = 20;
maxConsec = 12;
maxPresence = 13;
demand = [36, 33, 30, 28, 32, 30, 25, 26, 25, 30, 32, 27, 32, 33, 33, 34, 31, 32, 27, 29, 30, 25, 23, 25, 28, 31, 34, 30, 25, 30, 31, 34, 34, 33, 37, 42, 39, 41, 41, 38];
